 &control
    calculation = 'scf'
    restart_mode='from_scratch',
    prefix='pr',
    tstress = .true.
    tprnfor = .true.
    pseudo_dir = './',
    outdir='./'
 /
 &system
    ibrav=  1, 
    celldm(1) =10.2631027943003, 
    nat= 8, 
    ntyp= 1,
    ecutwfc =20.0,
 /
 &electrons
    diagonalization='david'
!    electron_maxstep = 10
    mixing_mode = 'plain'
    mixing_beta = 0.7
    conv_thr =  1.0d-8
 /
ATOMIC_SPECIES
 Si  28.086  Si.pbe-rrkj.UPF
ATOMIC_POSITIONS crystal
 Si 0.00000  0.00000  0.00000 
 Si 0.50000  0.50000  0.00000 
 Si 0.00000  0.50000  0.50000 
 Si 0.50000  0.00000  0.50000 
 Si 0.25000  0.25000  0.25000 
 Si 0.75000  0.75000  0.25000
 Si 0.25000  0.75000  0.75000
 Si 0.75000  0.25000  0.75000
K_POINTS automatic
 8 8 1 0 0 0 

